benchmarks/bfuzz0/6765571629760203703095260273045410147.smt2
(set-logic QF_FP)
(declare-const x0 (_ FloatingPoint 8 24))
(declare-const x1 (_ FloatingPoint 8 24))
(declare-const x2 (_ FloatingPoint 8 24))
(declare-const x3 (_ FloatingPoint 8 24))
(declare-const x4 (_ FloatingPoint 8 24))
(declare-const x5 (_ FloatingPoint 8 24))
(declare-const x6 (_ FloatingPoint 8 24))
(declare-const x7 (_ FloatingPoint 8 24))
(declare-const x8 (_ FloatingPoint 8 24))
(declare-const x9 (_ FloatingPoint 8 24))
(declare-const x10 (_ FloatingPoint 8 24))
(declare-const x11 (_ FloatingPoint 8 24))
(declare-const x12 (_ FloatingPoint 8 24))
(declare-const x13 (_ FloatingPoint 8 24))
(declare-const x14 (_ FloatingPoint 8 24))
(declare-const x15 (_ FloatingPoint 8 24))
(declare-const x16 (_ FloatingPoint 8 24))
(declare-const x17 (_ FloatingPoint 8 24))
(declare-const x18 (_ FloatingPoint 8 24))
(declare-const x19 (_ FloatingPoint 8 24))
(declare-const x20 (_ FloatingPoint 8 24))
(declare-const x21 (_ FloatingPoint 8 24))
(declare-const x22 (_ FloatingPoint 8 24))
(declare-const x23 (_ FloatingPoint 8 24))
(declare-const x24 (_ FloatingPoint 8 24))
(declare-const x25 (_ FloatingPoint 8 24))
(assert (fp.lt (fp.mul RNE (fp.sub RNE (fp.neg (fp.mul RNE x17 x11)) (fp.add RNE (fp.neg x7) (fp.sub RNE x3 x13))) (fp.neg (fp.mul RNE (fp.neg x6) (fp.add RNE x25 x21)))) (fp.add RNE (fp.sub RNE (fp.div RNE (fp.neg x13) (fp.neg x10)) (fp.neg (fp.mul RNE x0 x0))) (fp.mul RNE (fp.div RNE (fp.add RNE x4 x7) (fp.add RNE x8 x23)) (fp.add RNE (fp.neg x22) (fp.mul RNE x24 x19))))))
(assert (fp.lt (fp.neg (fp.sub RNE (fp.sub RNE (fp.neg x22) (fp.div RNE x17 x15)) (fp.add RNE (fp.mul RNE x22 x22) (fp.add RNE x17 x8)))) (fp.mul RNE (fp.neg (fp.div RNE (fp.div RNE x8 x20) (fp.sub RNE x7 x11))) (fp.neg (fp.add RNE (fp.sub RNE x19 x15) (fp.mul RNE x7 x7))))))
(assert (fp.lt (fp.div RNE (fp.sub RNE (fp.neg (fp.sub RNE x3 x12)) (fp.mul RNE (fp.mul RNE x10 x10) (fp.add RNE x9 x0))) (fp.mul RNE (fp.add RNE (fp.div RNE x12 x17) (fp.neg x5)) (fp.mul RNE (fp.add RNE x23 x18) (fp.add RNE x10 x3)))) (fp.div RNE (fp.div RNE (fp.div RNE (fp.sub RNE x11 x8) (fp.mul RNE x12 x4)) (fp.sub RNE (fp.neg x0) (fp.mul RNE x25 x13))) (fp.div RNE (fp.div RNE (fp.mul RNE x9 x3) (fp.mul RNE x12 x9)) (fp.sub RNE (fp.sub RNE x8 x17) (fp.mul RNE x2 x4))))))
(assert (fp.lt (fp.sub RNE (fp.add RNE (fp.neg (fp.mul RNE x23 x20)) (fp.sub RNE (fp.mul RNE x15 x2) (fp.sub RNE x2 x22))) (fp.mul RNE (fp.div RNE (fp.div RNE x13 x6) (fp.neg x24)) (fp.mul RNE (fp.div RNE x14 x15) (fp.sub RNE x22 x15)))) (fp.add RNE (fp.neg (fp.neg (fp.div RNE x19 x21))) (fp.div RNE (fp.sub RNE (fp.neg x16) (fp.add RNE x17 x19)) (fp.mul RNE (fp.mul RNE x21 x13) (fp.div RNE x6 x5))))))
(assert (fp.leq (fp.neg (fp.div RNE (fp.neg (fp.sub RNE x15 x11)) (fp.div RNE (fp.div RNE x17 x5) (fp.sub RNE x23 x8)))) (fp.mul RNE (fp.mul RNE (fp.div RNE (fp.sub RNE x15 x1) (fp.sub RNE x25 x13)) (fp.div RNE (fp.mul RNE x25 x13) (fp.div RNE x2 x15))) (fp.mul RNE (fp.mul RNE (fp.div RNE x21 x1) (fp.mul RNE x11 x21)) (fp.neg (fp.sub RNE x4 x18))))))
(assert (fp.eq (fp.neg (fp.add RNE (fp.add RNE (fp.mul RNE x12 x11) (fp.add RNE x6 x5)) (fp.sub RNE (fp.div RNE x3 x18) (fp.mul RNE x12 x17)))) (fp.sub RNE (fp.div RNE (fp.div RNE (fp.mul RNE x18 x23) (fp.div RNE x12 x24)) (fp.mul RNE (fp.neg x4) (fp.div RNE x11 x15))) (fp.neg (fp.sub RNE (fp.mul RNE x9 x6) (fp.mul RNE x1 x16))))))
(assert (fp.eq (fp.add RNE (fp.mul RNE (fp.div RNE (fp.div RNE x12 x17) (fp.sub RNE x24 x10)) (fp.mul RNE (fp.sub RNE x11 x22) (fp.sub RNE x11 x4))) (fp.div RNE (fp.div RNE (fp.mul RNE x19 x10) (fp.sub RNE x14 x5)) (fp.div RNE (fp.div RNE x1 x20) (fp.sub RNE x23 x15)))) (fp.neg (fp.sub RNE (fp.sub RNE (fp.mul RNE x19 x1) (fp.div RNE x1 x12)) (fp.neg (fp.neg x12))))))
(assert (fp.eq (fp.mul RNE (fp.neg (fp.sub RNE (fp.neg x4) (fp.add RNE x14 x18))) (fp.div RNE (fp.add RNE (fp.add RNE x11 x25) (fp.add RNE x24 x18)) (fp.neg (fp.sub RNE x4 x16)))) (fp.mul RNE (fp.sub RNE (fp.sub RNE (fp.div RNE x23 x13) (fp.div RNE x7 x9)) (fp.mul RNE (fp.mul RNE x1 x24) (fp.div RNE x9 x20))) (fp.div RNE (fp.mul RNE (fp.neg x20) (fp.sub RNE x14 x5)) (fp.neg (fp.neg x13))))))
(check-sat)
