db/data/6765571629760203703095260273045410147.z3.out
-------------------
2500.136529679
